wcsp 50 3 251 512409557603043100
3 3 3 3 3 3 3 3 3 3 3 3 3 3 3 3 3 3 3 3 3 3 3 3 3 3 3 3 3 3 3 3 3 3 3 3 3 3 3 3 3 3 3 3 3 3 3 3 3 3
2 10 39 0 9
0 0 2
0 1 2
0 2 0
1 0 2
1 1 0
1 2 0
2 0 1
2 1 2
2 2 0
2 12 33 0 9
0 0 1
0 1 3
0 2 3
1 0 0
1 1 0
1 2 0
2 0 1
2 1 2
2 2 0
2 4 44 0 9
0 0 0
0 1 3
0 2 0
1 0 1
1 1 0
1 2 3
2 0 2
2 1 1
2 2 0
2 37 42 0 9
0 0 0
0 1 3
0 2 2
1 0 0
1 1 1
1 2 0
2 0 3
2 1 0
2 2 3
2 20 44 0 9
0 0 2
0 1 0
0 2 2
1 0 3
1 1 3
1 2 0
2 0 0
2 1 2
2 2 0
2 3 19 0 9
0 0 0
0 1 1
0 2 3
1 0 3
1 1 1
1 2 0
2 0 3
2 1 0
2 2 0
2 23 40 0 9
0 0 0
0 1 1
0 2 0
1 0 3
1 1 0
1 2 2
2 0 1
2 1 0
2 2 1
2 18 34 0 9
0 0 2
0 1 1
0 2 3
1 0 0
1 1 3
1 2 0
2 0 0
2 1 0
2 2 3
2 33 39 0 9
0 0 0
0 1 0
0 2 0
1 0 2
1 1 2
1 2 1
2 0 0
2 1 1
2 2 3
2 47 48 0 9
0 0 1
0 1 0
0 2 0
1 0 1
1 1 0
1 2 3
2 0 0
2 1 3
2 2 2
2 23 27 0 9
0 0 3
0 1 0
0 2 1
1 0 2
1 1 1
1 2 0
2 0 1
2 1 0
2 2 0
2 7 20 0 9
0 0 0
0 1 1
0 2 0
1 0 2
1 1 0
1 2 0
2 0 2
2 1 1
2 2 1
2 35 40 0 9
0 0 0
0 1 1
0 2 3
1 0 3
1 1 1
1 2 0
2 0 0
2 1 3
2 2 0
2 34 39 0 9
0 0 2
0 1 0
0 2 3
1 0 3
1 1 0
1 2 0
2 0 1
2 1 1
2 2 0
2 10 41 0 9
0 0 1
0 1 2
0 2 3
1 0 0
1 1 1
1 2 0
2 0 0
2 1 2
2 2 0
2 7 26 0 9
0 0 1
0 1 0
0 2 0
1 0 0
1 1 0
1 2 1
2 0 1
2 1 1
2 2 2
2 15 43 0 9
0 0 2
0 1 0
0 2 2
1 0 0
1 1 3
1 2 1
2 0 3
2 1 0
2 2 0
2 1 25 0 9
0 0 3
0 1 1
0 2 2
1 0 0
1 1 1
1 2 0
2 0 0
2 1 2
2 2 0
2 17 48 0 9
0 0 0
0 1 3
0 2 0
1 0 3
1 1 3
1 2 0
2 0 1
2 1 2
2 2 0
2 17 29 0 9
0 0 0
0 1 2
0 2 1
1 0 0
1 1 0
1 2 2
2 0 1
2 1 3
2 2 0
2 14 36 0 9
0 0 0
0 1 0
0 2 1
1 0 1
1 1 0
1 2 2
2 0 2
2 1 3
2 2 0
2 8 23 0 9
0 0 0
0 1 0
0 2 3
1 0 1
1 1 0
1 2 3
2 0 0
2 1 2
2 2 1
2 15 29 0 9
0 0 0
0 1 0
0 2 3
1 0 3
1 1 1
1 2 1
2 0 0
2 1 2
2 2 0
2 39 48 0 9
0 0 0
0 1 2
0 2 1
1 0 3
1 1 2
1 2 1
2 0 0
2 1 0
2 2 0
2 19 22 0 9
0 0 3
0 1 1
0 2 3
1 0 3
1 1 1
1 2 0
2 0 0
2 1 0
2 2 0
2 25 41 0 9
0 0 0
0 1 0
0 2 2
1 0 3
1 1 0
1 2 1
2 0 3
2 1 1
2 2 0
2 9 18 0 9
0 0 1
0 1 3
0 2 0
1 0 2
1 1 0
1 2 1
2 0 1
2 1 0
2 2 0
2 1 19 0 9
0 0 2
0 1 2
0 2 3
1 0 1
1 1 0
1 2 0
2 0 0
2 1 0
2 2 2
2 46 47 0 9
0 0 0
0 1 3
0 2 0
1 0 2
1 1 1
1 2 2
2 0 2
2 1 0
2 2 0
2 23 48 0 9
0 0 1
0 1 0
0 2 1
1 0 0
1 1 0
1 2 3
2 0 1
2 1 0
2 2 2
2 13 15 0 9
0 0 2
0 1 0
0 2 1
1 0 3
1 1 2
1 2 0
2 0 0
2 1 0
2 2 3
2 0 23 0 9
0 0 0
0 1 0
0 2 1
1 0 3
1 1 0
1 2 0
2 0 2
2 1 2
2 2 1
2 25 49 0 9
0 0 2
0 1 1
0 2 0
1 0 0
1 1 0
1 2 1
2 0 0
2 1 2
2 2 2
2 19 20 0 9
0 0 0
0 1 3
0 2 0
1 0 2
1 1 0
1 2 2
2 0 0
2 1 2
2 2 2
2 28 45 0 9
0 0 0
0 1 3
0 2 3
1 0 1
1 1 2
1 2 0
2 0 0
2 1 0
2 2 3
2 19 21 0 9
0 0 0
0 1 0
0 2 1
1 0 3
1 1 1
1 2 1
2 0 0
2 1 0
2 2 3
2 2 21 0 9
0 0 2
0 1 1
0 2 0
1 0 0
1 1 2
1 2 1
2 0 0
2 1 2
2 2 0
2 1 16 0 9
0 0 0
0 1 3
0 2 2
1 0 2
1 1 0
1 2 1
2 0 3
2 1 0
2 2 0
2 0 30 0 9
0 0 2
0 1 0
0 2 0
1 0 1
1 1 2
1 2 2
2 0 1
2 1 0
2 2 0
2 5 38 0 9
0 0 0
0 1 3
0 2 2
1 0 0
1 1 0
1 2 0
2 0 1
2 1 2
2 2 3
2 26 39 0 9
0 0 0
0 1 0
0 2 3
1 0 0
1 1 0
1 2 3
2 0 1
2 1 3
2 2 2
2 4 33 0 9
0 0 0
0 1 0
0 2 2
1 0 1
1 1 2
1 2 1
2 0 0
2 1 1
2 2 0
2 36 45 0 9
0 0 2
0 1 3
0 2 0
1 0 0
1 1 0
1 2 1
2 0 0
2 1 1
2 2 3
2 22 40 0 9
0 0 3
0 1 0
0 2 0
1 0 3
1 1 1
1 2 0
2 0 3
2 1 2
2 2 0
2 13 37 0 9
0 0 1
0 1 0
0 2 0
1 0 2
1 1 1
1 2 3
2 0 0
2 1 0
2 2 2
2 22 41 0 9
0 0 0
0 1 3
0 2 0
1 0 2
1 1 2
1 2 1
2 0 0
2 1 3
2 2 0
2 23 38 0 9
0 0 0
0 1 0
0 2 3
1 0 2
1 1 2
1 2 2
2 0 0
2 1 0
2 2 3
2 43 45 0 9
0 0 1
0 1 0
0 2 1
1 0 0
1 1 2
1 2 0
2 0 2
2 1 3
2 2 0
2 16 31 0 9
0 0 0
0 1 2
0 2 0
1 0 1
1 1 0
1 2 1
2 0 3
2 1 0
2 2 2
2 18 24 0 9
0 0 3
0 1 3
0 2 0
1 0 2
1 1 0
1 2 0
2 0 0
2 1 2
2 2 3
2 22 36 0 9
0 0 1
0 1 0
0 2 3
1 0 0
1 1 0
1 2 0
2 0 2
2 1 1
2 2 1
2 0 32 0 9
0 0 0
0 1 1
0 2 0
1 0 1
1 1 0
1 2 0
2 0 2
2 1 1
2 2 2
2 13 46 0 9
0 0 3
0 1 0
0 2 3
1 0 0
1 1 3
1 2 2
2 0 2
2 1 0
2 2 0
2 17 34 0 9
0 0 0
0 1 0
0 2 3
1 0 2
1 1 1
1 2 0
2 0 3
2 1 0
2 2 2
2 18 37 0 9
0 0 2
0 1 0
0 2 0
1 0 1
1 1 1
1 2 3
2 0 2
2 1 0
2 2 0
2 23 43 0 9
0 0 1
0 1 0
0 2 1
1 0 0
1 1 0
1 2 3
2 0 3
2 1 3
2 2 0
2 1 12 0 9
0 0 0
0 1 3
0 2 0
1 0 3
1 1 2
1 2 2
2 0 3
2 1 0
2 2 0
2 14 31 0 9
0 0 1
0 1 1
0 2 0
1 0 0
1 1 0
1 2 3
2 0 0
2 1 2
2 2 3
2 18 47 0 9
0 0 1
0 1 0
0 2 0
1 0 1
1 1 1
1 2 2
2 0 0
2 1 3
2 2 0
2 27 29 0 9
0 0 0
0 1 0
0 2 2
1 0 3
1 1 3
1 2 0
2 0 3
2 1 0
2 2 1
2 15 49 0 9
0 0 0
0 1 0
0 2 0
1 0 0
1 1 1
1 2 2
2 0 1
2 1 2
2 2 3
2 9 13 0 9
0 0 0
0 1 0
0 2 3
1 0 3
1 1 2
1 2 2
2 0 1
2 1 0
2 2 0
2 20 24 0 9
0 0 3
0 1 2
0 2 3
1 0 0
1 1 0
1 2 0
2 0 0
2 1 3
2 2 3
2 38 42 0 9
0 0 0
0 1 0
0 2 0
1 0 3
1 1 1
1 2 2
2 0 3
2 1 0
2 2 3
2 17 28 0 9
0 0 1
0 1 0
0 2 0
1 0 1
1 1 1
1 2 2
2 0 2
2 1 0
2 2 0
2 37 48 0 9
0 0 3
0 1 3
0 2 0
1 0 0
1 1 2
1 2 2
2 0 0
2 1 0
2 2 2
2 24 41 0 9
0 0 2
0 1 1
0 2 1
1 0 2
1 1 3
1 2 0
2 0 0
2 1 0
2 2 0
2 5 16 0 9
0 0 0
0 1 2
0 2 3
1 0 3
1 1 0
1 2 3
2 0 0
2 1 0
2 2 2
2 9 45 0 9
0 0 3
0 1 1
0 2 2
1 0 0
1 1 0
1 2 3
2 0 1
2 1 0
2 2 0
2 11 43 0 9
0 0 0
0 1 0
0 2 3
1 0 3
1 1 2
1 2 1
2 0 0
2 1 0
2 2 1
2 15 35 0 9
0 0 2
0 1 0
0 2 2
1 0 0
1 1 3
1 2 1
2 0 0
2 1 3
2 2 0
2 14 24 0 9
0 0 3
0 1 0
0 2 0
1 0 1
1 1 3
1 2 0
2 0 3
2 1 1
2 2 0
2 2 33 0 9
0 0 2
0 1 2
0 2 0
1 0 1
1 1 3
1 2 0
2 0 0
2 1 0
2 2 2
2 5 49 0 9
0 0 2
0 1 1
0 2 3
1 0 1
1 1 3
1 2 0
2 0 0
2 1 0
2 2 0
2 1 28 0 9
0 0 2
0 1 3
0 2 1
1 0 0
1 1 0
1 2 0
2 0 2
2 1 0
2 2 1
2 38 49 0 9
0 0 1
0 1 0
0 2 3
1 0 0
1 1 0
1 2 1
2 0 3
2 1 1
2 2 0
2 24 36 0 9
0 0 1
0 1 3
0 2 2
1 0 2
1 1 0
1 2 0
2 0 0
2 1 0
2 2 3
2 10 27 0 9
0 0 0
0 1 3
0 2 0
1 0 2
1 1 0
1 2 3
2 0 3
2 1 0
2 2 1
2 32 40 0 9
0 0 3
0 1 0
0 2 1
1 0 0
1 1 3
1 2 0
2 0 1
2 1 0
2 2 1
2 42 45 0 9
0 0 3
0 1 0
0 2 0
1 0 0
1 1 0
1 2 1
2 0 2
2 1 2
2 2 2
2 6 10 0 9
0 0 2
0 1 1
0 2 0
1 0 1
1 1 1
1 2 1
2 0 0
2 1 0
2 2 0
2 27 38 0 9
0 0 2
0 1 0
0 2 3
1 0 0
1 1 0
1 2 3
2 0 3
2 1 1
2 2 0
2 20 21 0 9
0 0 1
0 1 0
0 2 1
1 0 2
1 1 2
1 2 0
2 0 0
2 1 0
2 2 2
2 6 11 0 9
0 0 2
0 1 2
0 2 0
1 0 1
1 1 2
1 2 0
2 0 2
2 1 0
2 2 0
2 15 40 0 9
0 0 2
0 1 0
0 2 2
1 0 2
1 1 0
1 2 0
2 0 1
2 1 0
2 2 1
2 7 34 0 9
0 0 0
0 1 0
0 2 0
1 0 1
1 1 3
1 2 3
2 0 0
2 1 3
2 2 1
2 22 34 0 9
0 0 2
0 1 2
0 2 1
1 0 0
1 1 1
1 2 0
2 0 2
2 1 0
2 2 0
2 33 42 0 9
0 0 0
0 1 1
0 2 1
1 0 0
1 1 1
1 2 0
2 0 0
2 1 1
2 2 1
2 6 29 0 9
0 0 3
0 1 0
0 2 3
1 0 2
1 1 0
1 2 0
2 0 1
2 1 0
2 2 2
2 26 34 0 9
0 0 1
0 1 0
0 2 3
1 0 0
1 1 0
1 2 0
2 0 2
2 1 2
2 2 1
2 10 46 0 9
0 0 0
0 1 0
0 2 3
1 0 1
1 1 1
1 2 2
2 0 0
2 1 0
2 2 3
2 22 28 0 9
0 0 0
0 1 3
0 2 0
1 0 3
1 1 3
1 2 1
2 0 3
2 1 0
2 2 0
2 31 47 0 9
0 0 3
0 1 3
0 2 0
1 0 0
1 1 3
1 2 0
2 0 1
2 1 3
2 2 0
2 19 43 0 9
0 0 1
0 1 3
0 2 0
1 0 1
1 1 0
1 2 0
2 0 2
2 1 0
2 2 3
2 10 26 0 9
0 0 0
0 1 0
0 2 3
1 0 1
1 1 0
1 2 3
2 0 3
2 1 2
2 2 0
2 19 46 0 9
0 0 2
0 1 0
0 2 2
1 0 0
1 1 2
1 2 0
2 0 3
2 1 3
2 2 0
2 1 9 0 9
0 0 0
0 1 0
0 2 1
1 0 1
1 1 0
1 2 1
2 0 3
2 1 3
2 2 0
2 10 42 0 9
0 0 1
0 1 3
0 2 0
1 0 2
1 1 0
1 2 0
2 0 3
2 1 0
2 2 1
2 4 46 0 9
0 0 2
0 1 0
0 2 0
1 0 3
1 1 3
1 2 3
2 0 0
2 1 0
2 2 3
2 15 32 0 9
0 0 2
0 1 0
0 2 2
1 0 3
1 1 0
1 2 0
2 0 0
2 1 1
2 2 3
2 4 41 0 9
0 0 0
0 1 3
0 2 2
1 0 1
1 1 3
1 2 0
2 0 1
2 1 0
2 2 0
2 13 36 0 9
0 0 3
0 1 3
0 2 0
1 0 0
1 1 0
1 2 3
2 0 3
2 1 0
2 2 3
2 22 37 0 9
0 0 0
0 1 2
0 2 0
1 0 2
1 1 0
1 2 0
2 0 1
2 1 3
2 2 3
2 20 28 0 9
0 0 3
0 1 0
0 2 3
1 0 0
1 1 0
1 2 3
2 0 0
2 1 3
2 2 1
2 12 47 0 9
0 0 1
0 1 2
0 2 3
1 0 0
1 1 2
1 2 0
2 0 0
2 1 3
2 2 0
2 0 44 0 9
0 0 2
0 1 0
0 2 2
1 0 1
1 1 0
1 2 2
2 0 0
2 1 1
2 2 0
2 22 24 0 9
0 0 1
0 1 0
0 2 1
1 0 0
1 1 0
1 2 1
2 0 3
2 1 0
2 2 3
2 9 49 0 9
0 0 0
0 1 2
0 2 2
1 0 3
1 1 0
1 2 3
2 0 0
2 1 0
2 2 3
2 32 43 0 9
0 0 0
0 1 2
0 2 1
1 0 3
1 1 0
1 2 3
2 0 2
2 1 0
2 2 0
2 26 47 0 9
0 0 1
0 1 3
0 2 0
1 0 2
1 1 0
1 2 2
2 0 1
2 1 0
2 2 0
2 33 34 0 9
0 0 2
0 1 0
0 2 0
1 0 3
1 1 0
1 2 3
2 0 3
2 1 3
2 2 0
2 19 26 0 9
0 0 0
0 1 0
0 2 2
1 0 2
1 1 1
1 2 0
2 0 0
2 1 3
2 2 3
2 4 45 0 9
0 0 2
0 1 0
0 2 1
1 0 3
1 1 1
1 2 0
2 0 3
2 1 0
2 2 0
2 16 40 0 9
0 0 2
0 1 0
0 2 0
1 0 2
1 1 0
1 2 0
2 0 2
2 1 2
2 2 2
2 15 30 0 9
0 0 3
0 1 1
0 2 0
1 0 1
1 1 0
1 2 0
2 0 3
2 1 0
2 2 2
2 28 29 0 9
0 0 1
0 1 3
0 2 0
1 0 3
1 1 0
1 2 2
2 0 0
2 1 3
2 2 0
2 3 21 0 9
0 0 0
0 1 0
0 2 1
1 0 2
1 1 0
1 2 2
2 0 2
2 1 2
2 2 0
2 19 44 0 9
0 0 0
0 1 2
0 2 0
1 0 0
1 1 0
1 2 3
2 0 3
2 1 2
2 2 1
2 23 30 0 9
0 0 0
0 1 0
0 2 1
1 0 0
1 1 3
1 2 3
2 0 0
2 1 3
2 2 3
2 27 49 0 9
0 0 0
0 1 3
0 2 0
1 0 3
1 1 1
1 2 3
2 0 1
2 1 0
2 2 0
2 40 45 0 9
0 0 3
0 1 0
0 2 3
1 0 2
1 1 0
1 2 2
2 0 3
2 1 0
2 2 0
2 17 38 0 9
0 0 3
0 1 0
0 2 3
1 0 0
1 1 2
1 2 0
2 0 0
2 1 1
2 2 2
2 19 49 0 9
0 0 3
0 1 1
0 2 0
1 0 0
1 1 2
1 2 3
2 0 0
2 1 3
2 2 0
2 1 17 0 9
0 0 0
0 1 3
0 2 3
1 0 1
1 1 0
1 2 1
2 0 0
2 1 0
2 2 1
2 12 29 0 9
0 0 0
0 1 3
0 2 0
1 0 1
1 1 0
1 2 0
2 0 2
2 1 1
2 2 1
2 2 3 0 9
0 0 0
0 1 0
0 2 0
1 0 0
1 1 2
1 2 3
2 0 3
2 1 1
2 2 1
2 27 37 0 9
0 0 1
0 1 0
0 2 0
1 0 2
1 1 2
1 2 0
2 0 0
2 1 2
2 2 1
2 0 49 0 9
0 0 0
0 1 3
0 2 2
1 0 0
1 1 2
1 2 0
2 0 2
2 1 0
2 2 3
2 0 15 0 9
0 0 0
0 1 3
0 2 0
1 0 2
1 1 1
1 2 0
2 0 0
2 1 3
2 2 2
2 22 49 0 9
0 0 0
0 1 0
0 2 0
1 0 3
1 1 0
1 2 3
2 0 3
2 1 2
2 2 1
2 11 22 0 9
0 0 0
0 1 1
0 2 0
1 0 2
1 1 2
1 2 1
2 0 1
2 1 0
2 2 0
2 39 41 0 9
0 0 0
0 1 3
0 2 2
1 0 2
1 1 0
1 2 1
2 0 2
2 1 0
2 2 0
2 4 31 0 9
0 0 0
0 1 0
0 2 2
1 0 2
1 1 0
1 2 3
2 0 3
2 1 0
2 2 2
2 39 47 0 9
0 0 0
0 1 3
0 2 0
1 0 3
1 1 0
1 2 1
2 0 3
2 1 0
2 2 2
2 2 39 0 9
0 0 0
0 1 1
0 2 3
1 0 0
1 1 0
1 2 1
2 0 3
2 1 0
2 2 2
2 8 44 0 9
0 0 0
0 1 2
0 2 3
1 0 2
1 1 3
1 2 0
2 0 0
2 1 0
2 2 2
2 4 10 0 9
0 0 3
0 1 0
0 2 1
1 0 0
1 1 2
1 2 0
2 0 1
2 1 0
2 2 2
2 7 40 0 9
0 0 0
0 1 0
0 2 0
1 0 1
1 1 3
1 2 0
2 0 2
2 1 3
2 2 2
2 38 43 0 9
0 0 2
0 1 3
0 2 0
1 0 3
1 1 0
1 2 3
2 0 0
2 1 2
2 2 0
2 13 38 0 9
0 0 0
0 1 1
0 2 1
1 0 0
1 1 2
1 2 3
2 0 0
2 1 3
2 2 0
2 18 42 0 9
0 0 0
0 1 0
0 2 3
1 0 3
1 1 0
1 2 3
2 0 1
2 1 3
2 2 0
2 18 31 0 9
0 0 3
0 1 0
0 2 3
1 0 2
1 1 1
1 2 0
2 0 3
2 1 0
2 2 0
2 15 27 0 9
0 0 2
0 1 0
0 2 2
1 0 3
1 1 0
1 2 0
2 0 1
2 1 1
2 2 0
2 21 47 0 9
0 0 0
0 1 0
0 2 2
1 0 2
1 1 1
1 2 0
2 0 0
2 1 1
2 2 3
2 16 34 0 9
0 0 3
0 1 3
0 2 0
1 0 0
1 1 1
1 2 0
2 0 1
2 1 2
2 2 0
2 0 26 0 9
0 0 1
0 1 0
0 2 1
1 0 2
1 1 2
1 2 0
2 0 0
2 1 1
2 2 0
2 29 48 0 9
0 0 0
0 1 1
0 2 0
1 0 3
1 1 2
1 2 0
2 0 0
2 1 1
2 2 1
2 13 43 0 9
0 0 3
0 1 0
0 2 2
1 0 2
1 1 2
1 2 0
2 0 0
2 1 2
2 2 0
2 8 16 0 9
0 0 0
0 1 2
0 2 0
1 0 2
1 1 0
1 2 1
2 0 3
2 1 0
2 2 1
2 25 42 0 9
0 0 0
0 1 1
0 2 3
1 0 0
1 1 2
1 2 3
2 0 0
2 1 2
2 2 0
2 19 23 0 9
0 0 3
0 1 2
0 2 0
1 0 1
1 1 0
1 2 3
2 0 2
2 1 0
2 2 0
2 27 30 0 9
0 0 2
0 1 0
0 2 3
1 0 0
1 1 0
1 2 2
2 0 1
2 1 2
2 2 0
2 10 47 0 9
0 0 0
0 1 0
0 2 2
1 0 3
1 1 3
1 2 1
2 0 0
2 1 1
2 2 0
2 14 35 0 9
0 0 1
0 1 0
0 2 1
1 0 0
1 1 0
1 2 1
2 0 2
2 1 2
2 2 0
2 6 48 0 9
0 0 0
0 1 3
0 2 0
1 0 1
1 1 2
1 2 3
2 0 0
2 1 1
2 2 0
2 44 47 0 9
0 0 2
0 1 3
0 2 1
1 0 0
1 1 0
1 2 1
2 0 0
2 1 0
2 2 2
2 15 45 0 9
0 0 0
0 1 0
0 2 1
1 0 3
1 1 3
1 2 1
2 0 3
2 1 0
2 2 0
2 13 27 0 9
0 0 2
0 1 2
0 2 0
1 0 3
1 1 2
1 2 3
2 0 0
2 1 0
2 2 0
2 11 39 0 9
0 0 1
0 1 1
0 2 3
1 0 0
1 1 0
1 2 0
2 0 0
2 1 1
2 2 1
2 25 37 0 9
0 0 0
0 1 2
0 2 0
1 0 0
1 1 2
1 2 3
2 0 1
2 1 0
2 2 1
2 36 38 0 9
0 0 0
0 1 0
0 2 1
1 0 2
1 1 0
1 2 1
2 0 2
2 1 2
2 2 0
2 13 24 0 9
0 0 1
0 1 0
0 2 0
1 0 0
1 1 1
1 2 3
2 0 3
2 1 0
2 2 1
2 11 18 0 9
0 0 3
0 1 0
0 2 1
1 0 1
1 1 0
1 2 0
2 0 0
2 1 3
2 2 1
2 7 18 0 9
0 0 3
0 1 1
0 2 0
1 0 3
1 1 0
1 2 0
2 0 2
2 1 2
2 2 0
2 13 30 0 9
0 0 0
0 1 0
0 2 2
1 0 0
1 1 1
1 2 2
2 0 1
2 1 0
2 2 3
2 12 41 0 9
0 0 2
0 1 2
0 2 0
1 0 0
1 1 2
1 2 0
2 0 0
2 1 1
2 2 3
2 13 23 0 9
0 0 0
0 1 2
0 2 0
1 0 0
1 1 0
1 2 2
2 0 1
2 1 2
2 2 2
2 17 33 0 9
0 0 0
0 1 3
0 2 0
1 0 1
1 1 1
1 2 0
2 0 0
2 1 2
2 2 3
2 17 27 0 9
0 0 1
0 1 3
0 2 0
1 0 0
1 1 3
1 2 0
2 0 0
2 1 2
2 2 1
2 3 34 0 9
0 0 0
0 1 0
0 2 0
1 0 2
1 1 2
1 2 1
2 0 3
2 1 1
2 2 0
2 17 46 0 9
0 0 2
0 1 0
0 2 0
1 0 3
1 1 2
1 2 0
2 0 0
2 1 1
2 2 3
2 7 29 0 9
0 0 2
0 1 0
0 2 1
1 0 1
1 1 0
1 2 1
2 0 0
2 1 0
2 2 2
2 0 40 0 9
0 0 0
0 1 0
0 2 3
1 0 1
1 1 2
1 2 0
2 0 0
2 1 1
2 2 3
2 30 48 0 9
0 0 0
0 1 0
0 2 0
1 0 3
1 1 2
1 2 2
2 0 1
2 1 1
2 2 0
2 5 25 0 9
0 0 2
0 1 1
0 2 0
1 0 0
1 1 0
1 2 3
2 0 3
2 1 0
2 2 1
2 27 28 0 9
0 0 1
0 1 2
0 2 3
1 0 1
1 1 0
1 2 1
2 0 0
2 1 0
2 2 0
2 5 47 0 9
0 0 0
0 1 2
0 2 0
1 0 0
1 1 3
1 2 3
2 0 1
2 1 0
2 2 2
2 7 16 0 9
0 0 3
0 1 1
0 2 2
1 0 0
1 1 2
1 2 0
2 0 0
2 1 0
2 2 1
2 21 42 0 9
0 0 3
0 1 1
0 2 0
1 0 0
1 1 2
1 2 3
2 0 0
2 1 2
2 2 0
2 12 48 0 9
0 0 2
0 1 1
0 2 0
1 0 2
1 1 0
1 2 0
2 0 3
2 1 0
2 2 1
2 30 38 0 9
0 0 0
0 1 1
0 2 0
1 0 1
1 1 0
1 2 1
2 0 1
2 1 2
2 2 0
2 10 15 0 9
0 0 2
0 1 3
0 2 0
1 0 0
1 1 2
1 2 1
2 0 0
2 1 1
2 2 0
2 3 46 0 9
0 0 0
0 1 2
0 2 0
1 0 2
1 1 1
1 2 2
2 0 1
2 1 0
2 2 0
2 0 16 0 9
0 0 1
0 1 1
0 2 0
1 0 0
1 1 3
1 2 0
2 0 2
2 1 0
2 2 1
2 8 45 0 9
0 0 0
0 1 2
0 2 0
1 0 0
1 1 2
1 2 0
2 0 2
2 1 3
2 2 3
2 6 14 0 9
0 0 0
0 1 3
0 2 0
1 0 2
1 1 0
1 2 1
2 0 1
2 1 0
2 2 3
2 42 47 0 9
0 0 0
0 1 0
0 2 2
1 0 3
1 1 2
1 2 2
2 0 1
2 1 0
2 2 0
2 28 31 0 9
0 0 2
0 1 0
0 2 0
1 0 1
1 1 0
1 2 0
2 0 3
2 1 3
2 2 1
2 9 40 0 9
0 0 0
0 1 0
0 2 2
1 0 1
1 1 0
1 2 1
2 0 1
2 1 0
2 2 2
2 7 47 0 9
0 0 3
0 1 0
0 2 0
1 0 3
1 1 0
1 2 1
2 0 2
2 1 2
2 2 0
2 8 42 0 9
0 0 3
0 1 1
0 2 0
1 0 1
1 1 0
1 2 0
2 0 0
2 1 3
2 2 3
2 41 45 0 9
0 0 2
0 1 0
0 2 1
1 0 0
1 1 1
1 2 0
2 0 2
2 1 0
2 2 3
2 40 49 0 9
0 0 0
0 1 0
0 2 3
1 0 0
1 1 2
1 2 0
2 0 1
2 1 2
2 2 1
2 10 30 0 9
0 0 1
0 1 0
0 2 3
1 0 3
1 1 3
1 2 0
2 0 2
2 1 0
2 2 0
2 20 46 0 9
0 0 0
0 1 0
0 2 1
1 0 3
1 1 0
1 2 1
2 0 1
2 1 1
2 2 0
2 6 9 0 9
0 0 0
0 1 3
0 2 0
1 0 2
1 1 3
1 2 0
2 0 2
2 1 0
2 2 2
2 45 46 0 9
0 0 0
0 1 1
0 2 3
1 0 3
1 1 0
1 2 2
2 0 3
2 1 0
2 2 0
2 29 34 0 9
0 0 3
0 1 0
0 2 1
1 0 0
1 1 0
1 2 2
2 0 2
2 1 0
2 2 1
2 21 45 0 9
0 0 0
0 1 2
0 2 0
1 0 1
1 1 2
1 2 1
2 0 0
2 1 2
2 2 0
2 5 30 0 9
0 0 2
0 1 3
0 2 2
1 0 0
1 1 2
1 2 0
2 0 0
2 1 3
2 2 0
1 0 512409557603043100 3
0 0
1 1
2 0
1 1 512409557603043100 3
0 0
1 2
2 1
1 2 512409557603043100 3
0 2
1 0
2 3
1 3 512409557603043100 3
0 1
1 0
2 1
1 4 512409557603043100 3
0 3
1 0
2 3
1 5 512409557603043100 3
0 2
1 0
2 1
1 6 512409557603043100 3
0 0
1 2
2 2
1 7 512409557603043100 3
0 1
1 0
2 1
1 8 512409557603043100 3
0 0
1 1
2 0
1 9 512409557603043100 3
0 0
1 2
2 1
1 10 512409557603043100 3
0 2
1 2
2 0
1 11 512409557603043100 3
0 3
1 0
2 3
1 12 512409557603043100 3
0 0
1 0
2 2
1 13 512409557603043100 3
0 1
1 0
2 3
1 14 512409557603043100 3
0 1
1 1
2 0
1 15 512409557603043100 3
0 1
1 3
2 0
1 16 512409557603043100 3
0 2
1 2
2 0
1 17 512409557603043100 3
0 0
1 2
2 2
1 18 512409557603043100 3
0 1
1 0
2 0
1 19 512409557603043100 3
0 1
1 0
2 2
1 20 512409557603043100 3
0 0
1 0
2 0
1 21 512409557603043100 3
0 0
1 1
2 2
1 22 512409557603043100 3
0 3
1 1
2 0
1 23 512409557603043100 3
0 1
1 0
2 0
1 24 512409557603043100 3
0 1
1 1
2 0
1 25 512409557603043100 3
0 0
1 1
2 1
1 26 512409557603043100 3
0 0
1 2
2 3
1 27 512409557603043100 3
0 3
1 0
2 2
1 28 512409557603043100 3
0 0
1 1
2 1
1 29 512409557603043100 3
0 0
1 1
2 2
1 30 512409557603043100 3
0 2
1 0
2 1
1 31 512409557603043100 3
0 1
1 0
2 0
1 32 512409557603043100 3
0 0
1 0
2 1
1 33 512409557603043100 3
0 2
1 2
2 0
1 34 512409557603043100 3
0 0
1 1
2 2
1 35 512409557603043100 3
0 1
1 0
2 2
1 36 512409557603043100 3
0 0
1 3
2 0
1 37 512409557603043100 3
0 2
1 0
2 3
1 38 512409557603043100 3
0 0
1 1
2 1
1 39 512409557603043100 3
0 2
1 0
2 3
1 40 512409557603043100 3
0 1
1 0
2 2
1 41 512409557603043100 3
0 1
1 1
2 0
1 42 512409557603043100 3
0 0
1 1
2 1
1 43 512409557603043100 3
0 0
1 1
2 0
1 44 512409557603043100 3
0 0
1 2
2 1
1 45 512409557603043100 3
0 0
1 2
2 0
1 46 512409557603043100 3
0 0
1 1
2 0
1 47 512409557603043100 3
0 3
1 1
2 0
1 48 512409557603043100 3
0 0
1 1
2 1
1 49 512409557603043100 3
0 0
1 0
2 3
0 29 0
